7 0 5 122 187 127 98 96 160 159 70 156 1 95 23 105 76 152 123 180 198 186 39 60 141 52 10 190 189 132 45 157 91 104 36 140 55 117 77 69 191 79 199 89 31 175 43 196 154 113 78 17 56 90 92 67 42 118 161 107 38 73 8 155 14 168 184 44 74 2 174 93 62 61 103 129 172 6 66 130 148 126 163 125 57 116 183 97 35 29 34 170 142 12 149 20 178 181 166 49 19 143 85 158 173 101 124 153 11 75 194 193 80 111 26 110 150 165 41 112 87 21 59 192 108 64 197 72 65 162 27 58 135 82 83 22 9 176 138 182 119 51 137 16 131 185 133 50 24 47 171 71 25 139 40 48 177 120 136 134 15 33 18 188 4 121 81 100 106 68 3 28 53 144 84 109 46 114 179 147 99 164 167 195 30 145 37 146 94 151 128 169 63 13 88 115 32 54 102 86 

